id: 1203
name: neos808444
group: miplib2010
method: 2

Gurobi 7.0.2 (linux64, Matlab) logging started Mon Mar 26 10:15:51 2018


Gurobi 7.0.2 (linux64) logging started Mon Mar 26 10:15:51 2018

Optimize a model with 18329 rows, 19846 columns and 120512 nonzeros
Coefficient statistics:
  Matrix range     [1e+00, 8e+01]
  Objective range  [0e+00, 0e+00]
  Bounds range     [1e+00, 1e+00]
  RHS range        [1e+00, 2e+00]
Presolve removed 600 rows and 516 columns
Presolve time: 0.03s
Presolved: 17729 rows, 19330 columns, 119357 nonzeros

Ordering time: 0.14s

Barrier statistics:
 AA' NZ     : 2.195e+05
 Factor NZ  : 1.500e+06 (roughly 30 MBytes of memory)
 Factor Ops : 2.586e+08 (less than 1 second per iteration)
 Threads    : 4

                  Objective                Residual
Iter       Primal          Dual         Primal    Dual     Compl     Time
   0   0.00000000e+00 -2.50000000e+00  9.42e+02 0.00e+00  2.59e-01     0s
   1   0.00000000e+00 -2.64591233e+02  4.00e+02 1.53e-16  1.07e-01     0s
   2   0.00000000e+00 -1.66032299e+02  2.40e+01 2.78e-16  8.70e-03     0s
   3   0.00000000e+00 -8.09911522e+01  1.20e+00 1.94e-16  1.66e-03     0s
   4   0.00000000e+00 -4.46863974e+00  2.80e-14 1.35e-16  7.98e-05     0s
   5   0.00000000e+00 -4.46863974e-03  1.83e-14 1.21e-17  7.98e-08     0s
   6   0.00000000e+00 -4.46863974e-06  1.18e-14 8.52e-21  7.98e-11     0s
   7   0.00000000e+00 -4.47966718e-12  1.43e-14 9.33e-24  8.00e-17     0s

Barrier solved model in 7 iterations and 0.42 seconds
Optimal objective 0.00000000e+00

Crossover log...

   18964 PPushes remaining with PInf 0.0000000e+00                 0s
       0 PPushes remaining with PInf 0.0000000e+00                 1s

  Push phase complete: Pinf 0.0000000e+00, Dinf 0.0000000e+00      1s

Iteration    Objective       Primal Inf.    Dual Inf.      Time
   18967    0.0000000e+00   0.000000e+00   0.000000e+00      1s
   18967    0.0000000e+00   0.000000e+00   0.000000e+00      1s

Solved in 18967 iterations and 0.67 seconds
Optimal objective  0.000000000e+00
status: OPTIMAL
